(define-fun assumption.0 ((instr_jal (_ BitVec 1)) (mem_state (_ BitVec 2)) (mem_instr (_ BitVec 1)) (cpu_state (_ BitVec 8)) (latched_branch (_ BitVec 1)) (decoder_trigger_q (_ BitVec 1)) (mem_do_rdata (_ BitVec 1)) (latched_store (_ BitVec 1)) (compressed_instr (_ BitVec 1)) (rvfi_trap (_ BitVec 1)) (mem_do_wdata (_ BitVec 1)) (mem_do_rinst (_ BitVec 1)) (mem_valid (_ BitVec 1)) (is_alu_reg_imm (_ BitVec 1)) (instr_retirq (_ BitVec 1))) Bool (and (and true (or (or (not (= ((_ extract 0 0) mem_state) (_ bv1 1))) (not (= ((_ extract 1 1) mem_state) (_ bv1 1)))) (not (= ((_ extract 0 0) mem_valid) (_ bv1 1))))) (not (and (and (and (and (and (and (and (and (and (and (and (and (and (and (= mem_instr (_ bv1 1)) (= cpu_state (_ bv64 8))) (= is_alu_reg_imm (_ bv1 1))) (= instr_jal (_ bv0 1))) (= latched_store (_ bv0 1))) (= latched_branch (_ bv0 1))) (= mem_valid (_ bv1 1))) (= instr_retirq (_ bv0 1))) (= mem_state (_ bv3 2))) (= mem_do_rinst (_ bv1 1))) (= mem_do_wdata (_ bv0 1))) (= rvfi_trap (_ bv0 1))) (= compressed_instr (_ bv0 1))) (= decoder_trigger_q (_ bv0 1))) (= mem_do_rdata (_ bv0 1))))))
(define-fun assumption.1 ((mem_valid (_ BitVec 1)) (trap (_ BitVec 1)) (do_waitirq (_ BitVec 1)) (mem_instr (_ BitVec 1)) (mem_do_rinst (_ BitVec 1)) (decoded_rd (_ BitVec 5)) (mem_wordsize (_ BitVec 2)) (mem_state (_ BitVec 2)) (latched_branch (_ BitVec 1)) (cpu_state (_ BitVec 8)) (mem_do_wdata (_ BitVec 1)) (instr_retirq (_ BitVec 1)) (latched_store (_ BitVec 1)) (decoder_trigger_q (_ BitVec 1)) (mem_do_rdata (_ BitVec 1)) (latched_rd (_ BitVec 5)) (instr_jal (_ BitVec 1)) (compressed_instr (_ BitVec 1))) Bool (and true (not (and (and (and (and (and (and (and (and (and (and (and (and (and (and (and (and (and (= mem_do_rinst (_ bv1 1)) (= decoded_rd (_ bv0 5))) (= mem_instr (_ bv1 1))) (= cpu_state (_ bv64 8))) (= mem_do_wdata (_ bv0 1))) (= decoder_trigger_q (_ bv0 1))) (= instr_jal (_ bv0 1))) (= mem_state (_ bv0 2))) (= mem_valid (_ bv1 1))) (= trap (_ bv0 1))) (= do_waitirq (_ bv0 1))) (= compressed_instr (_ bv0 1))) (= mem_wordsize (_ bv0 2))) (= latched_store (_ bv0 1))) (= mem_do_rdata (_ bv1 1))) (= latched_rd (_ bv31 5))) (= latched_branch (_ bv0 1))) (= instr_retirq (_ bv0 1))))))
